
Gurobi 8.0.0 (linux64) logging started Fri May  3 19:51:28 2019

Academic license - for non-commercial use only

Gurobi Optimizer version 8.0.0 build v8.0.0rc0 (linux64)
Copyright (c) 2018, Gurobi Optimization, LLC

Read LP format model from file Linear_program.lp
Reading time = 0.00 seconds
: 26 rows, 18 columns, 59 nonzeros
Optimize a model with 26 rows, 18 columns and 59 nonzeros
Variable types: 14 continuous, 4 integer (4 binary)
Coefficient statistics:
  Matrix range     [5e-01, 1e+10]
  Objective range  [1e+00, 1e+00]
  Bounds range     [1e+00, 1e+00]
  RHS range        [0e+00, 0e+00]
Warning: Model contains large matrix coefficients
         Consider reformulating model or setting NumericFocus parameter
         to avoid numerical issues.
Found heuristic solution: objective -0.0000000
Presolve removed 14 rows and 8 columns
Presolve time: 0.00s
Presolved: 12 rows, 10 columns, 30 nonzeros
Variable types: 6 continuous, 4 integer (4 binary)

Root relaxation: objective 7.500000e+00, 6 iterations, 0.00 seconds

    Nodes    |    Current Node    |     Objective Bounds      |     Work
 Expl Unexpl |  Obj  Depth IntInf | Incumbent    BestBd   Gap | It/Node Time

     0     0    7.50000    0    1   -0.00000    7.50000      -     -    0s
H    0     0                       6.2500000    7.50000  20.0%     -    0s
     0     0          -    0         6.25000    6.25000  0.00%     -    0s

Cutting planes:
  Gomory: 1
  Implied bound: 1
  MIR: 1

Explored 1 nodes (7 simplex iterations) in 0.00 seconds
Thread count was 4 (of 4 available processors)

Solution count 2: 6.25 -0 

Optimal solution found (tolerance 1.00e-04)
Best objective 6.250000000000e+00, best bound 6.250000000000e+00, gap 0.0000%

Gurobi 8.0.0 (linux64) logging started Fri May  3 21:20:05 2019

Academic license - for non-commercial use only

Gurobi Optimizer version 8.0.0 build v8.0.0rc0 (linux64)
Copyright (c) 2018, Gurobi Optimization, LLC

Read LP format model from file Linear_program.lp
Reading time = 0.00 seconds
: 30 rows, 18 columns, 71 nonzeros
Optimize a model with 30 rows, 18 columns and 71 nonzeros
Variable types: 14 continuous, 4 integer (4 binary)
Coefficient statistics:
  Matrix range     [1e-05, 1e+10]
  Objective range  [1e+00, 1e+00]
  Bounds range     [1e+00, 1e+00]
  RHS range        [0e+00, 0e+00]
Warning: Model contains large matrix coefficient range
         Consider reformulating model or setting NumericFocus parameter
         to avoid numerical issues.
Found heuristic solution: objective -0.0000000
Presolve removed 14 rows and 8 columns
Presolve time: 0.00s
Presolved: 16 rows, 10 columns, 44 nonzeros
Variable types: 6 continuous, 4 integer (4 binary)

Root relaxation: objective 8.750000e+00, 4 iterations, 0.00 seconds

    Nodes    |    Current Node    |     Objective Bounds      |     Work
 Expl Unexpl |  Obj  Depth IntInf | Incumbent    BestBd   Gap | It/Node Time

*    0     0               0       8.7500000    8.75000  0.00%     -    0s

Explored 0 nodes (6 simplex iterations) in 0.00 seconds
Thread count was 4 (of 4 available processors)

Solution count 2: 8.75 -0 

Optimal solution found (tolerance 1.00e-04)
Best objective 8.750000000000e+00, best bound 8.750000000000e+00, gap 0.0000%

Gurobi 8.0.0 (linux64) logging started Sat May  4 01:02:26 2019

Academic license - for non-commercial use only

Gurobi Optimizer version 8.0.0 build v8.0.0rc0 (linux64)
Copyright (c) 2018, Gurobi Optimization, LLC

Read LP format model from file Linear_program.lp
Reading time = 0.00 seconds
: 30 rows, 18 columns, 71 nonzeros
Optimize a model with 30 rows, 18 columns and 71 nonzeros
Variable types: 14 continuous, 4 integer (4 binary)
Coefficient statistics:
  Matrix range     [1e-05, 1e+10]
  Objective range  [1e+00, 1e+00]
  Bounds range     [1e+00, 1e+00]
  RHS range        [0e+00, 0e+00]
Warning: Model contains large matrix coefficient range
         Consider reformulating model or setting NumericFocus parameter
         to avoid numerical issues.
Found heuristic solution: objective -0.0000000
Presolve removed 14 rows and 8 columns
Presolve time: 0.00s
Presolved: 16 rows, 10 columns, 42 nonzeros
Variable types: 6 continuous, 4 integer (4 binary)

Root relaxation: objective 8.749999e+00, 8 iterations, 0.00 seconds

    Nodes    |    Current Node    |     Objective Bounds      |     Work
 Expl Unexpl |  Obj  Depth IntInf | Incumbent    BestBd   Gap | It/Node Time

*    0     0               0       8.7499987    8.75000  0.00%     -    0s

Explored 0 nodes (8 simplex iterations) in 0.00 seconds
Thread count was 4 (of 4 available processors)

Solution count 2: 8.75 -0 

Optimal solution found (tolerance 1.00e-04)
Warning: max constraint violation (1.0000e+01) exceeds tolerance
         (possibly due to large matrix coefficients)
Best objective 8.749998748750e+00, best bound 8.749998748750e+00, gap 0.0000%
